NAME : KROE99A.25879.tour
COMMENT : Cost = 0_25879
COMMENT : Found by LKH [Keld Helsgaun] Sun Sep 17 16:52:41 2017
TYPE : TOUR
DIMENSION : 99
TOUR_SECTION
1
82
39
25
53
44
98
17
83
61
55
15
20
48
49
59
9
30
56
79
10
96
64
5
8
47
41
89
29
65
13
74
40
86
66
81
91
54
90
19
93
18
24
28
99
77
52
76
84
95
11
2
4
69
36
33
6
92
22
85
42
38
32
37
67
71
43
88
80
70
60
14
51
72
16
78
26
45
3
46
68
50
75
12
31
58
97
94
35
27
23
63
57
62
34
87
7
21
73
-1
EOF
